
******************************************************************************
This program contains Ipopt, a library for large-scale nonlinear optimization.
 Ipopt is released as open source code under the Eclipse Public License (EPL).
         For more information visit http://projects.coin-or.org/Ipopt
******************************************************************************

This is Ipopt version 3.12.6, running with linear solver ma57.

Number of nonzeros in equality constraint Jacobian...:     5996
Number of nonzeros in inequality constraint Jacobian.:        0
Number of nonzeros in Lagrangian Hessian.............:     5995

Total number of variables............................:     2999
                     variables with only lower bounds:        0
                variables with lower and upper bounds:        0
                     variables with only upper bounds:        0
Total number of equality constraints.................:     1000
Total number of inequality constraints...............:        0
        inequality constraints with only lower bounds:        0
   inequality constraints with lower and upper bounds:        0
        inequality constraints with only upper bounds:        0

iter    objective    inf_pr   inf_du lg(mu)  ||d||  lg(rg) alpha_du alpha_pr  ls
   0 -1.4715000e+06 2.80e-01 4.91e+00  -1.0 0.00e+00    -  0.00e+00 0.00e+00   0
Reallocating memory for MA57: lfact (105474)
Reallocating memory for MA57: lfact (164136)
Reallocating memory for MA57: lfact (262571)
Reallocating memory for MA57: lfact (418118)
Reallocating memory for MA57: lfact (669425)
Reallocating memory for MA57: lfact (1081269)
Reallocating memory for MA57: lfact (1748476)
Reallocating memory for MA57: lfact (2831089)
Reallocating memory for MA57: lfact (4580062)
Reallocating memory for MA57: lfact (7424634)
Reallocating memory for MA57: lfact (10003716)
Reallocating memory for MA57: lfact (10536788)
   1 -5.2359138e+06 1.17e+06 9.77e+04  -1.0 2.46e+04  -4.0 1.00e+00 3.12e-02f  6
   2 -9.3889916e+06 1.23e+06 8.47e+04  -1.0 1.13e+04    -  1.00e+00 1.25e-01f  4
   3 -7.4575265e+06 1.52e+06 2.45e+04  -1.0 1.93e+03    -  1.00e+00 1.00e+00h  1
   4 -7.4539895e+06 6.81e+05 4.09e+08  -1.0 6.37e+02   3.8 1.00e+00 1.00e+00h  1
   5 -4.2687510e+06 1.88e+05 1.02e+08  -1.0 9.18e+02    -  1.00e+00 1.00e+00h  1
   6 -2.8024658e+06 5.57e+04 2.57e+07  -1.0 3.92e+02    -  1.00e+00 1.00e+00h  1
   7 -2.3856196e+06 1.39e+04 6.42e+06  -1.0 1.19e+02    -  1.00e+00 1.00e+00h  1
   8 -2.3855388e+06 5.40e+03 2.28e+07  -1.0 5.91e+01   5.2 1.00e+00 1.00e+00h  1
   9 -2.3854843e+06 5.40e+03 3.26e+09  -1.0 5.19e+01   6.5 1.00e+00 1.00e+00h  1
iter    objective    inf_pr   inf_du lg(mu)  ||d||  lg(rg) alpha_du alpha_pr  ls
  10 -2.0130081e+06 1.35e+03 8.16e+08  -1.0 9.57e+01    -  1.00e+00 1.00e+00h  1
  11 -2.0129853e+06 7.60e+02 5.79e+10  -1.0 2.42e+01   8.7 1.00e+00 5.00e-01h  2
  12 -2.0129361e+06 7.44e+02 3.39e+11  -1.0 1.80e+01  10.1 1.00e+00 1.00e+00h  1
  13 -2.0155398e+06 4.54e+02 8.39e+10  -1.0 3.30e+01    -  1.00e+00 1.00e+00f  1
  14 -2.0155418e+06 2.82e+02 8.83e+12  -1.0 8.26e+00  11.4 1.00e+00 1.00e+00h  1
  15 -2.0155000e+06 9.15e+01 6.67e+12  -1.0 8.30e+00  10.9 1.00e+00 1.00e+00h  1
  16 -1.9118966e+06 2.26e+01 1.66e+12  -1.0 3.44e+01    -  1.00e+00 1.00e+00h  1
  17 -1.9118438e+06 1.54e+01 3.73e+12  -1.0 7.31e+00  10.4 1.00e+00 5.00e-01h  2
  18 -1.8241548e+06 3.61e+00 8.84e+11  -1.0 3.23e+01    -  1.00e+00 1.00e+00h  1
  19 -1.8241076e+06 2.03e+00 4.93e+11  -1.0 3.18e+00  10.0 1.00e+00 5.00e-01h  2
iter    objective    inf_pr   inf_du lg(mu)  ||d||  lg(rg) alpha_du alpha_pr  ls
  20 -1.7953603e+06 3.40e-01 8.84e+10  -1.0 9.72e+00    -  1.00e+00 1.00e+00h  1
  21 -1.7953511e+06 5.38e-02 7.35e+09  -1.0 4.58e-01   9.5 1.00e+00 1.00e+00h  1
  22 -1.7966121e+06 5.27e-03 1.90e+08  -1.0 3.09e-01    -  1.00e+00 1.00e+00f  1
  23 -1.7966121e+06 1.22e-05 1.90e+06  -1.0 1.88e-03   9.0 1.00e+00 1.00e+00h  1
  24 -4.3232307e+06 1.73e+04 2.60e+05  -1.0 1.51e+03    -  1.00e+00 1.00e+00f  1
  25 -4.3232307e+06 1.54e+04 2.22e+11  -1.0 2.24e+02   8.5 1.00e+00 1.25e-01h  4
  26 -4.3232307e+06 1.19e+04 3.68e+12  -1.0 1.35e+02   9.9 1.00e+00 5.00e-01h  2
  27 -4.3232307e+06 9.53e+03 4.47e+12  -1.0 6.40e+01  10.3 1.00e+00 5.00e-01h  2
  28 -4.3232307e+06 7.72e+03 4.11e+12  -1.0 1.57e+02   9.8 1.00e+00 5.00e-01h  2
  29 -2.4654784e+06 2.00e+03 1.03e+12  -1.0 8.99e+02    -  1.00e+00 1.00e+00h  1
iter    objective    inf_pr   inf_du lg(mu)  ||d||  lg(rg) alpha_du alpha_pr  ls
  30 -2.4654779e+06 1.75e+03 9.32e+11  -1.0 1.17e+02   9.3 1.00e+00 5.00e-01h  2
  31 -2.1105185e+06 9.86e+02 5.23e+11  -1.0 4.05e+02    -  1.00e+00 5.00e-01h  2
  32 -2.0253564e+06 8.67e+02 4.60e+11  -1.0 3.46e+02    -  1.00e+00 1.25e-01h  4
  33 -2.0203288e+06 8.60e+02 4.56e+11  -1.0 3.25e+02    -  1.00e+00 7.81e-03h  8
  34 -2.0178253e+06 8.57e+02 4.55e+11  -1.0 3.24e+02    -  1.00e+00 3.91e-03h  9
  35 -2.0165761e+06 8.55e+02 4.54e+11  -1.0 3.23e+02    -  1.00e+00 1.95e-03h 10
  36 -1.3776519e+06 2.13e+02 1.11e+11  -1.0 3.23e+02    -  1.00e+00 1.00e+00h  1
  37 -1.3776512e+06 1.73e+02 4.85e+11  -1.0 2.73e+01   9.8 1.00e+00 2.50e-01h  3
  38 -1.1881691e+06 4.30e+01 1.21e+11  -1.0 1.25e+02    -  1.00e+00 1.00e+00h  1
  39 -1.1881690e+06 2.90e+01 1.43e+11  -1.0 1.39e+01   9.3 1.00e+00 5.00e-01h  2
iter    objective    inf_pr   inf_du lg(mu)  ||d||  lg(rg) alpha_du alpha_pr  ls
  40 -1.1881680e+06 6.06e+01 1.28e+11  -1.0 1.79e+01   8.8 1.00e+00 1.00e+00h  1
  41 -1.1224581e+06 1.49e+01 3.87e+10  -1.0 4.18e+01    -  1.00e+00 1.00e+00h  1
  42 -1.1224568e+06 6.29e+00 7.92e+09  -1.0 2.67e+00   8.3 1.00e+00 1.00e+00h  1
  43 -1.1188144e+06 3.23e+00 2.00e+09  -1.0 5.02e+00    -  1.00e+00 1.00e+00h  1
  44 -1.1188144e+06 1.91e+00 2.74e+08  -1.0 7.56e-01   7.8 1.00e+00 1.00e+00h  1
  45 -1.1419909e+06 3.14e-01 1.05e+07  -1.0 1.21e+01    -  1.00e+00 1.00e+00f  1
  46 -2.7450930e+06 6.13e+02 5.97e+05  -1.0 4.32e+02    -  1.00e+00 1.00e+00f  1
  47 -2.7450864e+06 6.06e+02 8.50e+07  -1.0 6.67e+01   7.4 1.00e+00 1.56e-02h  7
  48 -2.7450082e+06 5.40e+02 6.48e+08  -1.0 3.70e+01   6.9 1.00e+00 1.25e-01h  4
  49 -2.7446088e+06 3.24e+02 2.20e+09  -1.0 4.49e+01   6.4 1.00e+00 5.00e-01h  2
iter    objective    inf_pr   inf_du lg(mu)  ||d||  lg(rg) alpha_du alpha_pr  ls
  50 -2.7445060e+06 2.63e+02 7.46e+09  -1.0 1.93e+01   7.7 1.00e+00 2.50e-01h  3
  51 -2.7439971e+06 1.78e+02 3.68e+10  -1.0 4.78e+01   7.3 1.00e+00 5.00e-01h  2
  52 -2.7438388e+06 1.25e+02 1.34e+11  -1.0 1.29e+01   8.6 1.00e+00 5.00e-01h  2
  53 -2.6552726e+06 1.10e+02 1.17e+11  -1.0 2.40e+02    -  1.00e+00 1.25e-01h  4
  54 -2.3268353e+06 2.80e+02 6.60e+10  -1.0 1.92e+02    -  1.00e+00 5.00e-01h  2
  55 -2.2105505e+06 4.20e+02 5.05e+10  -1.0 1.31e+02    -  1.00e+00 2.50e-01h  3
  56 -2.0052996e+06 2.55e+02 2.84e+10  -1.0 1.29e+02    -  1.00e+00 5.00e-01h  2
  57 -2.0052170e+06 3.75e+02 9.06e+10  -1.0 1.30e+01   8.1 1.00e+00 1.00e+00w  1
  58 -1.6280083e+06 9.38e+01 2.26e+10  -1.0 1.10e+02    -  1.00e+00 1.00e+00h  1
  59 -1.6280112e+06 7.67e+01 1.67e+10  -1.0 4.86e+00   8.5 1.00e+00 1.00e+00h  1
iter    objective    inf_pr   inf_du lg(mu)  ||d||  lg(rg) alpha_du alpha_pr  ls
  60 -1.4389484e+06 2.78e+01 3.91e+09  -1.0 7.28e+01    -  1.00e+00 1.00e+00h  1
  61 -1.4389471e+06 2.02e+01 2.12e+09  -1.0 2.83e+00   8.1 1.00e+00 5.00e-01h  2
  62 -1.4389514e+06 2.06e+01 1.18e+10  -1.0 4.74e+00   7.6 1.00e+00 1.00e+00h  1
  63 -1.3461447e+06 1.48e+01 2.93e+09  -1.0 3.28e+01    -  1.00e+00 1.00e+00h  1
  64 -1.3461439e+06 1.40e+01 2.57e+09  -1.0 5.43e+00   7.1 1.00e+00 1.25e-01h  4
  65 -1.3461018e+06 1.08e+01 1.44e+09  -1.0 4.94e+00   6.6 1.00e+00 5.00e-01h  2
  66 -1.3458969e+06 5.24e+00 3.30e+08  -1.0 4.25e+00   6.2 1.00e+00 1.00e+00h  1
  67 -2.7400657e+07 6.33e+05 3.09e+08  -1.0 1.27e+05    -  1.00e+00 6.25e-02f  5
  68 -2.7400312e+07 3.65e+05 1.53e+09  -1.0 2.24e+02   5.7 1.00e+00 5.00e-01h  2
  69 -2.7399693e+07 1.38e+05 1.43e+09  -1.0 1.88e+02   6.1 1.00e+00 1.00e+00h  1
iter    objective    inf_pr   inf_du lg(mu)  ||d||  lg(rg) alpha_du alpha_pr  ls
  70 -2.7399230e+07 1.19e+05 1.10e+09  -1.0 1.80e+02   5.6 1.00e+00 1.00e+00h  1
  71 -2.7398907e+07 9.27e+04 5.86e+09  -1.0 2.53e+02   6.1 1.00e+00 1.00e+00h  1
  72 -2.7398204e+07 6.02e+04 3.16e+09  -1.0 4.76e+02   5.6 1.00e+00 5.00e-01h  2
  73 -1.4188985e+07 1.51e+04 7.91e+08  -1.0 4.08e+03    -  1.00e+00 1.00e+00h  1
  74 -1.4186338e+07 1.19e+04 8.81e+09  -1.0 2.91e+02   5.1 1.00e+00 5.00e-01h  2
  75 -7.5824241e+06 2.97e+03 2.19e+09  -1.0 2.04e+03    -  1.00e+00 1.00e+00h  1
  76 -7.5824136e+06 2.47e+03 1.66e+09  -1.0 1.03e+02   5.5 1.00e+00 2.50e-01h  3
  77 -7.5824127e+06 2.09e+03 2.18e+09  -1.0 1.56e+02   6.0 1.00e+00 2.50e-01h  3
  78 -7.5821079e+06 1.44e+03 6.38e+09  -1.0 2.46e+02   5.5 1.00e+00 5.00e-01h  2
  79 -4.0947362e+06 1.83e+03 1.59e+09  -1.0 1.10e+03    -  1.00e+00 1.00e+00h  1
iter    objective    inf_pr   inf_du lg(mu)  ||d||  lg(rg) alpha_du alpha_pr  ls
  80 -4.0947231e+06 1.42e+03 1.20e+09  -1.0 8.17e+01   5.9 1.00e+00 2.50e-01h  3
  81 -3.3640024e+06 8.00e+02 6.38e+08  -1.0 4.90e+02    -  1.00e+00 5.00e-01h  2
  82 -3.3637643e+06 4.50e+02 4.53e+08  -1.0 1.16e+02   5.4 1.00e+00 5.00e-01h  2
  83 -3.3561156e+06 2.58e+02 2.75e+08  -1.0 1.20e+02   5.0 1.00e+00 5.00e-01h  2
  84 -2.8545598e+06 4.75e+02 1.59e+08  -1.0 4.06e+02    -  1.00e+00 5.00e-01h  2
  85 -2.1464802e+06 1.23e+02 1.61e+08  -1.0 2.86e+02    -  1.00e+00 1.00e+00h  1
  86 -2.1456975e+06 9.77e+01 6.89e+08  -1.0 1.70e+01   5.4 1.00e+00 2.50e-01h  3
  87 -1.8198860e+06 2.42e+01 1.72e+08  -1.0 1.31e+02    -  1.00e+00 1.00e+00h  1
  88 -1.8198689e+06 2.22e+01 1.52e+08  -1.0 7.96e+00   6.7 1.00e+00 1.25e-01h  4
  89 -1.8196960e+06 2.37e+01 1.16e+08  -1.0 1.01e+01   6.2 1.00e+00 2.50e-01h  3
iter    objective    inf_pr   inf_du lg(mu)  ||d||  lg(rg) alpha_du alpha_pr  ls
  90 -1.7805645e+06 5.68e+00 2.75e+07  -1.0 4.11e+01    -  1.00e+00 1.00e+00h  1
  91 -1.7805624e+06 6.78e+00 3.13e+07  -1.0 5.73e+00   6.7 1.00e+00 1.25e-01h  4
  92 -1.7805538e+06 1.01e+01 1.07e+08  -1.0 3.45e+00   6.2 1.00e+00 5.00e-01h  2
  93 -1.7805378e+06 1.03e+01 2.45e+08  -1.0 5.33e+00   5.7 1.00e+00 1.00e+00h  1
  94 -1.7658496e+06 2.35e+00 5.95e+07  -1.0 8.89e+00    -  1.00e+00 1.00e+00h  1
  95 -1.7658491e+06 4.15e-01 1.35e+07  -1.0 5.55e-01   5.2 1.00e+00 1.00e+00h  1
  96 -1.8897151e+06 3.29e+02 1.18e+07  -1.0 2.71e+02    -  1.00e+00 1.25e-01f  4
  97 -2.1215242e+06 8.20e+01 1.29e+06  -1.0 9.54e+01    -  1.00e+00 1.00e+00f  1
  98 -2.5327878e+06 9.34e+02 1.91e+04  -1.0 2.17e+02    -  1.00e+00 1.00e+00f  1
  99 -2.2474763e+06 2.34e+02 4.50e+03  -1.0 1.24e+02    -  1.00e+00 1.00e+00h  1
iter    objective    inf_pr   inf_du lg(mu)  ||d||  lg(rg) alpha_du alpha_pr  ls
 100 -2.1377968e+06 5.96e+01 1.12e+03  -1.0 4.83e+01    -  1.00e+00 1.00e+00h  1
 101 -2.1106541e+06 1.48e+01 9.01e+02  -1.0 1.22e+01    -  1.00e+00 1.00e+00h  1
 102 -2.1031283e+06 3.52e+00 5.21e+02  -1.0 3.03e+00    -  1.00e+00 1.00e+00h  1
 103 -2.1004600e+06 7.15e-01 5.56e+02  -1.0 1.18e+00    -  1.00e+00 1.00e+00h  1
 104 -2.0996985e+06 8.82e-02 2.05e+02  -1.0 3.45e-01    -  1.00e+00 1.00e+00h  1
 105 -2.0995880e+06 3.99e-03 1.77e+01  -1.0 5.65e-02    -  1.00e+00 1.00e+00h  1
 106 -2.0995826e+06 3.12e-05 9.13e-02  -1.0 3.47e-03    -  1.00e+00 1.00e+00h  1
 107 -2.0995826e+06 1.30e-09 2.40e-06  -3.8 2.64e-05    -  1.00e+00 1.00e+00h  1
 108 -2.0995826e+06 2.09e-13 5.14e-10  -8.6 8.61e-10    -  1.00e+00 1.00e+00h  1

Number of Iterations....: 108

                                   (scaled)                 (unscaled)
Objective...............:  -2.0995825780790509e+06   -2.0995825780790509e+06
Dual infeasibility......:   5.1366466635727193e-10    5.1366466635727193e-10
Constraint violation....:   2.0899948438568572e-13    2.0899948438568572e-13
Complementarity.........:   0.0000000000000000e+00    0.0000000000000000e+00
Overall NLP error.......:   3.3572952747239001e-11    5.1366466635727193e-10


Number of objective function evaluations             = 230
Number of objective gradient evaluations             = 109
Number of equality constraint evaluations            = 257
Number of inequality constraint evaluations          = 0
Number of equality constraint Jacobian evaluations   = 109
Number of inequality constraint Jacobian evaluations = 0
Number of Lagrangian Hessian evaluations             = 108
Total CPU secs in IPOPT (w/o function evaluations)   =     39.120
Total CPU secs in NLP function evaluations           =      0.123

EXIT: Optimal Solution Found.

************************ CUTEst statistics ************************


 Package used            :  IPOPT
 Problem                 :  CATENA    
 # variables             =            3003
 # constraints           =            1000
 # objective functions   =        0.3400000E+03
 # objective gradients   =        0.1100000E+03
 # objective Hessians    =        0.1090000E+03
 # Hessian-vector prdct  =        0.0000000E+00
 # constraints functions =        0.3680000E+03
 # constraints gradients =        0.1110000E+03
 # constraints Hessians  =        0.1090000E+03
 Exit code               =               0
 Final f                 =  -0.2099583E+07
 Set up time             =            0.03 seconds
 Solve time              =           40.14 seconds


******************************************************************

System Time =      39.1539993286 s.
